NAME : block_53.439174.tour
COMMENT : Length = 439174
COMMENT : Found by LKH-3 [Keld Helsgaun] Mon Feb  2 23:20:28 2026
TYPE : TOUR
DIMENSION : 126
TOUR_SECTION
5
6
3
4
7
8
16
25
24
15
14
23
33
34
44
54
64
74
83
91
99
100
92
84
75
65
55
45
35
36
46
56
66
76
85
93
101
108
107
113
114
119
123
124
120
115
109
102
94
86
77
67
57
47
37
27
26
17
9
10
18
19
28
38
48
58
68
78
87
95
103
110
116
121
125
122
117
118
112
111
104
96
88
79
69
59
49
39
29
40
50
60
70
80
89
97
105
106
98
90
81
71
61
2
126
1
30
20
11
12
21
31
41
51
52
62
72
82
73
63
53
43
42
32
22
13
-1
EOF
